Version identifier: 22.1.1.0 | 2022-11-28 | 9160aff4d
CPXPARAM_ClockType                               1
CPXPARAM_Read_DataCheck                          1
CPXPARAM_Threads                                 1
CPXPARAM_TimeLimit                               7200
CPXPARAM_MIP_Tolerances_AbsMIPGap                0
CPXPARAM_MIP_Tolerances_MIPGap                   0
CPXPARAM_MIP_Tolerances_Integrality              0
Tried aggregator 5 times.
MIP Presolve eliminated 15576 rows and 5345 columns.
MIP Presolve modified 2732 coefficients.
Aggregator did 1757 substitutions.
Reduced MIP has 5662 rows, 3041 columns, and 17179 nonzeros.
Reduced MIP has 3041 binaries, 0 generals, 0 SOSs, and 0 indicators.
Presolve time = 0.04 sec. (40.76 ticks)
Found incumbent of value -4804.000000 after 0.06 sec. (58.25 ticks)
Probing time = 0.01 sec. (3.54 ticks)
Tried aggregator 1 time.
Detecting symmetries...
MIP Presolve eliminated 0 rows and 1 columns.
Reduced MIP has 5662 rows, 3040 columns, and 17178 nonzeros.
Reduced MIP has 3040 binaries, 0 generals, 0 SOSs, and 0 indicators.
Presolve time = 0.02 sec. (12.41 ticks)
Probing time = 0.01 sec. (3.50 ticks)
Clique table members: 4723.
MIP emphasis: balance optimality and feasibility.
MIP search method: dynamic search.
Parallel mode: none, using 1 thread.
Root relaxation solution time = 0.22 sec. (180.80 ticks)

        Nodes                                         Cuts/
   Node  Left     Objective  IInf  Best Integer    Best Bound    ItCnt     Gap

*     0+    0                        -4804.0000     2842.0000           159.16%
      0     0     1421.0000  1662    -4804.0000     1421.0000     3370  129.58%
*     0+    0                         1146.0000     1421.0000            24.00%
      0     0     1218.0000   950     1146.0000     Cuts: 471     5400    6.28%
*     0+    0                         1204.0000     1218.0000             1.16%
      0     0     1218.0000   975     1204.0000     Cuts: 226     5955    1.16%
*     0+    0                         1218.0000     1218.0000             0.00%
      0     0        cutoff           1218.0000     1218.0000     5955    0.00%
Elapsed time = 1.64 sec. (1551.72 ticks, tree = 0.01 MB, solutions = 4)

Clique cuts applied:  34
Implied bound cuts applied:  7
Zero-half cuts applied:  261
Lift and project cuts applied:  1

Root node processing (before b&c):
  Real time             =    1.64 sec. (1552.33 ticks)
Sequential b&c:
  Real time             =    0.00 sec. (0.00 ticks)
                          ------------
Total (root+branch&cut) =    1.64 sec. (1552.33 ticks)
Solution is feasible.

---------------------
@@@ MIP_optimal
>>> Benchmark mc2024_track1_181.cnf k 5 OPT 1218 TimeCost 4.676122188568115 TimeSolve 1.6698930263519287 TimeRead 0.004640817642211914 TimeTrans 3.0015883445739746
